presolving:
(round 1, fast)       0 del vars, 0 del conss, 0 add conss, 47268 chg bounds, 0 chg sides, 47268 chg coeffs, 0 upgd conss, 0 impls, 0 clqs
   (0.4s) running MILP presolver
   (0.5s) MILP presolver found nothing
(round 2, exhaustive) 0 del vars, 0 del conss, 0 add conss, 47268 chg bounds, 0 chg sides, 47268 chg coeffs, 47268 upgd conss, 0 impls, 0 clqs
   (1.2s) probing: 51/202 (25.2%) - 0 fixings, 0 aggregations, 0 implications, 0 bound changes
   (1.2s) probing aborted: 50/50 successive totally useless probings
   (1.3s) symmetry computation started: requiring (bin +, int -, cont +), (fixed: bin -, int +, cont -)
   (1.4s) no symmetry present
presolving (3 rounds: 3 fast, 2 medium, 2 exhaustive):
 0 deleted vars, 0 deleted constraints, 0 added constraints, 47268 tightened bounds, 0 added holes, 0 changed sides, 47268 changed coefficients
 47268 implications, 0 cliques
presolved problem has 47470 variables (202 bin, 0 int, 0 impl, 47268 cont) and 47704 constraints
  47268 constraints of type <varbound>
    436 constraints of type <linear>
Presolving Time: 1.31

 time | node  | left  |LP iter|LP it/n|mem/heur|mdpt |vars |cons |rows |cuts |sepa|confs|strbr|  dualbound   | primalbound  |  gap   | compl. 
p 1.7s|     1 |     0 |   234 |     - |   locks|   0 |  47k|  47k|  47k|   0 |  0 |   0 |   0 | 0.000000e+00 | 1.008004e+06 |    Inf | unknown
i 1.8s|     1 |     0 |   234 |     - |  oneopt|   0 |  47k|  47k|  47k|   0 |  0 |   0 |   0 | 0.000000e+00 | 9.107450e+05 |    Inf | unknown
  5.1s|     1 |     0 |  5049 |     - |   409M |   0 |  47k|  47k|  47k|   0 |  0 |   0 |   0 | 7.304485e+05 | 9.107450e+05 |  24.68%| unknown
r 5.1s|     1 |     0 |  5049 |     - |simplero|   0 |  47k|  47k|  47k|   0 |  0 |   0 |   0 | 7.304485e+05 | 7.915239e+05 |   8.36%| unknown
r 5.2s|     1 |     0 |  5049 |     - |shifting|   0 |  47k|  47k|  47k|   0 |  0 |   0 |   0 | 7.304485e+05 | 7.885978e+05 |   7.96%| unknown
  5.8s|     1 |     0 |  5514 |     - |   425M |   0 |  47k|  47k|  47k|   2 |  1 |   0 |   0 | 7.306559e+05 | 7.885978e+05 |   7.93%| unknown
r 5.8s|     1 |     0 |  5514 |     - |simplero|   0 |  47k|  47k|  47k|   2 |  1 |   0 |   0 | 7.306559e+05 | 7.857373e+05 |   7.54%| unknown
r 5.9s|     1 |     0 |  5514 |     - |shifting|   0 |  47k|  47k|  47k|   2 |  1 |   0 |   0 | 7.306559e+05 | 7.828194e+05 |   7.14%| unknown
  6.3s|     1 |     0 |  5826 |     - |   432M |   0 |  47k|  47k|  47k|   5 |  3 |   0 |   0 | 7.307291e+05 | 7.828194e+05 |   7.13%| unknown
r 6.3s|     1 |     0 |  5826 |     - |simplero|   0 |  47k|  47k|  47k|   5 |  3 |   0 |   0 | 7.307291e+05 | 7.819990e+05 |   7.02%| unknown
  6.6s|     1 |     0 |  5896 |     - |   438M |   0 |  47k|  47k|  47k|   6 |  4 |   0 |   0 | 7.307716e+05 | 7.819990e+05 |   7.01%| unknown
r 6.6s|     1 |     0 |  5896 |     - |shifting|   0 |  47k|  47k|  47k|   6 |  4 |   0 |   0 | 7.307716e+05 | 7.800154e+05 |   6.74%| unknown
  7.0s|     1 |     0 |  6153 |     - |   444M |   0 |  47k|  47k|  47k|   9 |  5 |   0 |   0 | 7.308190e+05 | 7.800154e+05 |   6.73%| unknown
r 7.1s|     1 |     0 |  6153 |     - |shifting|   0 |  47k|  47k|  47k|   9 |  5 |   0 |   0 | 7.308190e+05 | 7.790027e+05 |   6.59%| unknown
  7.3s|     1 |     0 |  6214 |     - |   450M |   0 |  47k|  47k|  47k|  10 |  6 |   0 |   0 | 7.308233e+05 | 7.790027e+05 |   6.59%| unknown
 time | node  | left  |LP iter|LP it/n|mem/heur|mdpt |vars |cons |rows |cuts |sepa|confs|strbr|  dualbound   | primalbound  |  gap   | compl. 
r 7.3s|     1 |     0 |  6214 |     - |shifting|   0 |  47k|  47k|  47k|  10 |  6 |   0 |   0 | 7.308233e+05 | 7.786937e+05 |   6.55%| unknown
  7.6s|     1 |     0 |  6283 |     - |   456M |   0 |  47k|  47k|  47k|  14 |  7 |   0 |   0 | 7.308332e+05 | 7.786937e+05 |   6.55%| unknown
r 7.6s|     1 |     0 |  6283 |     - |shifting|   0 |  47k|  47k|  47k|  14 |  7 |   0 |   0 | 7.308332e+05 | 7.785642e+05 |   6.53%| unknown
  7.9s|     1 |     0 |  6361 |     - |   463M |   0 |  47k|  47k|  47k|  15 |  8 |   0 |   0 | 7.308363e+05 | 7.785642e+05 |   6.53%| unknown
r 7.9s|     1 |     0 |  6361 |     - |shifting|   0 |  47k|  47k|  47k|  15 |  8 |   0 |   0 | 7.308363e+05 | 7.767299e+05 |   6.28%| unknown
  8.2s|     1 |     0 |  6446 |     - |   470M |   0 |  47k|  47k|  47k|  20 |  9 |   0 |   0 | 7.308509e+05 | 7.767299e+05 |   6.28%| unknown
r 8.2s|     1 |     0 |  6446 |     - |shifting|   0 |  47k|  47k|  47k|  20 |  9 |   0 |   0 | 7.308509e+05 | 7.746382e+05 |   5.99%| unknown
  8.4s|     1 |     0 |  6513 |     - |   477M |   0 |  47k|  47k|  47k|  21 | 10 |   0 |   0 | 7.308552e+05 | 7.746382e+05 |   5.99%| unknown
r 8.5s|     1 |     0 |  6513 |     - |shifting|   0 |  47k|  47k|  47k|  21 | 10 |   0 |   0 | 7.308552e+05 | 7.727570e+05 |   5.73%| unknown
  8.7s|     1 |     0 |  6539 |     - |   482M |   0 |  47k|  47k|  47k|  24 | 11 |   0 |   0 | 7.308588e+05 | 7.727570e+05 |   5.73%| unknown
r 8.7s|     1 |     0 |  6539 |     - |shifting|   0 |  47k|  47k|  47k|  24 | 11 |   0 |   0 | 7.308588e+05 | 7.714360e+05 |   5.55%| unknown
  8.9s|     1 |     0 |  6579 |     - |   489M |   0 |  47k|  47k|  47k|  28 | 12 |   0 |   0 | 7.308621e+05 | 7.714360e+05 |   5.55%| unknown
r 8.9s|     1 |     0 |  6579 |     - |shifting|   0 |  47k|  47k|  47k|  28 | 12 |   0 |   0 | 7.308621e+05 | 7.695831e+05 |   5.30%| unknown
  9.1s|     1 |     0 |  6580 |     - |   495M |   0 |  47k|  47k|  47k|  29 | 13 |   0 |   0 | 7.308621e+05 | 7.695831e+05 |   5.30%| unknown
r 9.7s|     1 |     0 |  7474 |     - |intshift|   0 |  47k|  47k|  47k|  29 | 13 |   0 |   0 | 7.308621e+05 | 7.543150e+05 |   3.21%| unknown
 time | node  | left  |LP iter|LP it/n|mem/heur|mdpt |vars |cons |rows |cuts |sepa|confs|strbr|  dualbound   | primalbound  |  gap   | compl. 
d12.8s|     1 |     0 | 10416 |     - |farkasdi|   0 |  47k|  47k|  47k|   0 | 13 |   0 |   0 | 7.308621e+05 | 7.530365e+05 |   3.03%| unknown
d13.0s|     1 |     0 | 10636 |     - |farkasdi|   0 |  47k|  47k|  47k|   0 | 13 |   0 |   0 | 7.308621e+05 | 7.521375e+05 |   2.91%| unknown
d13.4s|     1 |     0 | 11030 |     - |farkasdi|   0 |  47k|  47k|  47k|   0 | 13 |   0 |   0 | 7.308621e+05 | 7.451697e+05 |   1.96%| unknown
d13.6s|     1 |     0 | 11218 |     - |farkasdi|   0 |  47k|  47k|  47k|   0 | 13 |   0 |   0 | 7.308621e+05 | 7.449141e+05 |   1.92%| unknown
d13.7s|     1 |     0 | 11353 |     - |farkasdi|   0 |  47k|  47k|  47k|   0 | 13 |   0 |   0 | 7.308621e+05 | 7.406715e+05 |   1.34%| unknown
d14.0s|     1 |     0 | 11595 |     - |farkasdi|   0 |  47k|  47k|  47k|   0 | 13 |   0 |   0 | 7.308621e+05 | 7.403700e+05 |   1.30%| unknown
d14.0s|     1 |     0 | 11596 |     - |farkasdi|   0 |  47k|  47k|  47k|   0 | 13 |   0 |   0 | 7.308621e+05 | 7.364341e+05 |   0.76%| unknown
d14.0s|     1 |     0 | 11635 |     - |farkasdi|   0 |  47k|  47k|  47k|   0 | 13 |   0 |   0 | 7.308621e+05 | 7.351107e+05 |   0.58%| unknown
d14.2s|     1 |     0 | 11778 |     - |farkasdi|   0 |  47k|  47k|  47k|   0 | 13 |   0 |   0 | 7.308621e+05 | 7.350830e+05 |   0.58%| unknown
L31.1s|     1 |     0 | 11778 |     - |    rens|   0 |  47k|  47k|  47k|  29 | 13 |   0 |   0 | 7.308621e+05 | 7.316540e+05 |   0.11%| unknown
 32.6s|     1 |     0 | 11778 |     - |   532M |   0 |  47k|  47k|  47k|  29 | 13 |   0 |   0 | 7.308621e+05 | 7.316540e+05 |   0.11%| unknown
 32.7s|     1 |     0 | 11778 |     - |   539M |   0 |  47k|  47k|  47k|  29 | 13 |   0 |   0 | 7.308621e+05 | 7.316540e+05 |   0.11%| unknown
 32.9s|     1 |     0 | 11778 |     - |   543M |   0 |  47k|  47k|  33k|  29 | 14 |   0 |   0 | 7.308621e+05 | 7.316540e+05 |   0.11%| unknown
 32.9s|     1 |     0 | 11822 |     - |   543M |   0 |  47k|  47k|  33k|  33 | 15 |   0 |   0 | 7.308640e+05 | 7.316540e+05 |   0.11%| unknown
(run 1, node 1) restarting after 62 global fixings of integer variables

(restart) converted 33 cuts from the global cut pool into linear constraints

presolving:
(round 1, fast)       14570 del vars, 0 del conss, 0 add conss, 0 chg bounds, 0 chg sides, 0 chg coeffs, 0 upgd conss, 47268 impls, 0 clqs
   (33.6s) running MILP presolver
   (33.7s) MILP presolver found nothing
presolving (2 rounds: 2 fast, 1 medium, 1 exhaustive):
 14570 deleted vars, 0 deleted constraints, 0 added constraints, 0 tightened bounds, 0 added holes, 0 changed sides, 0 changed coefficients
 47268 implications, 0 cliques
presolved problem has 32900 variables (140 bin, 0 int, 0 impl, 32760 cont) and 33167 constraints
  32760 constraints of type <varbound>
    407 constraints of type <linear>
Presolving Time: 2.06
transformed 68/71 original solutions to the transformed problem space

 time | node  | left  |LP iter|LP it/n|mem/heur|mdpt |vars |cons |rows |cuts |sepa|confs|strbr|  dualbound   | primalbound  |  gap   | compl. 
 36.8s|     1 |     0 | 15710 |     - |   589M |   0 |  32k|  33k|  33k|   0 |  0 |   0 |   0 | 7.308640e+05 | 7.316540e+05 |   0.11%| unknown
 36.9s|     1 |     0 | 15710 |     - |   589M |   0 |  32k|  33k|  33k|   0 |  0 |   0 |   0 | 7.308640e+05 | 7.316540e+05 |   0.11%| unknown
 37.1s|     1 |     0 | 15722 |     - |   594M |   0 |  32k|  33k|  32k|   3 |  1 |   0 |   0 | 7.308641e+05 | 7.316540e+05 |   0.11%| unknown
 37.3s|     1 |     0 | 15728 |     - |   598M |   0 |  32k|  33k|  32k|   5 |  2 |   0 |   0 | 7.308642e+05 | 7.316540e+05 |   0.11%| unknown
 37.4s|     1 |     0 | 15735 |     - |   602M |   0 |  32k|  33k|  32k|   6 |  3 |   0 |   0 | 7.308647e+05 | 7.316540e+05 |   0.11%| unknown
 37.6s|     1 |     0 | 15744 |     - |   606M |   0 |  32k|  33k|  32k|   8 |  4 |   0 |   0 | 7.308648e+05 | 7.316540e+05 |   0.11%| unknown
 37.6s|     1 |     0 | 15744 |     - |   607M |   0 |  32k|  33k|  32k|   8 |  4 |   0 |   0 | 7.308648e+05 | 7.316540e+05 |   0.11%| unknown
 37.8s|     1 |     0 | 15753 |     - |   610M |   0 |  32k|  33k|  32k|   9 |  5 |   0 |   0 | 7.308650e+05 | 7.316540e+05 |   0.11%| unknown
 37.9s|     1 |     0 | 15760 |     - |   614M |   0 |  32k|  33k|  32k|  10 |  6 |   0 |   0 | 7.308651e+05 | 7.316540e+05 |   0.11%| unknown
 38.1s|     1 |     0 | 15761 |     - |   618M |   0 |  32k|  33k|  32k|  11 |  7 |   0 |   0 | 7.308651e+05 | 7.316540e+05 |   0.11%| unknown
 65.9s|     1 |     2 | 17348 |     - |   643M |   0 |  32k|  32k|  32k|  11 |  9 |  36k|  31 | 7.310885e+05 | 7.316540e+05 |   0.08%| unknown

SCIP Status        : problem is solved [optimal solution found]
Solving Time (sec) : 103.47
Solving Nodes      : 13 (total of 14 nodes in 2 runs)
Primal Bound       : +7.31654000000000e+05 (225 solutions)
Dual Bound         : +7.31654000000000e+05
Gap                : 0.00 %
Solve Status: optimal
Solve Time: 103.50 seconds
Objective Value: 731654.00
